c WARNING: for repeatability, setting FPU to use double precision
d VARIABLES            216460       
d CONSTRAINTS          802116       
c ============================[ Problem Statistics ]=============================
c |                                                                             |
c |  Number of variables:        216460                                         |
c |  Number of clauses:          802116                                         |
c |  Parse time:                   0.14 s                                       |
c |                                                                             |
c ============================[ Search Statistics ]==============================
c | Conflicts |          ORIGINAL         |          LEARNT          | Progress |
c |           |    Vars  Clauses Literals |    Limit  Clauses Lit/Cl |          |
c ===============================================================================
c |       100 |  180209   709674  1780907 |   260213      100     44 | 16.747 % |
c |       250 |  180209   709674  1780907 |   286235      250     43 | 16.747 % |
c |       475 |  180209   709674  1780907 |   314858      475     42 | 16.747 % |
c |       812 |  180209   709674  1780907 |   346344      812     37 | 16.747 % |
c |      1318 |  180209   709674  1780907 |   380979     1318     29 | 16.747 % |
c |      2077 |  180209   709674  1780907 |   419076     2077     21 | 16.747 % |
c |      3216 |  180209   709674  1780907 |   460984     3216     17 | 16.747 % |
c |      4924 |  180209   709674  1780907 |   507083     4924     20 | 16.747 % |
c |      7486 |  180209   709674  1780907 |   557791     7486     19 | 16.747 % |
c |     11330 |  180209   709674  1780907 |   613570    11330     17 | 16.747 % |
c |     17096 |  180209   709674  1780907 |   674927    17096     25 | 16.747 % |
c |     25745 |  180209   709674  1780907 |   742420    25745     41 | 16.747 % |
c |     38719 |  180209   709674  1780907 |   816662    38719     40 | 16.747 % |
c |     58180 |  180209   709674  1780907 |   898328    58180     52 | 16.747 % |
c |     87372 |  180209   709674  1780907 |   988161    87372     60 | 16.747 % |
c |    131161 |  180209   709674  1780907 |  1086977   131161     80 | 16.747 % |
c |    196845 |  180209   709674  1780907 |  1195675   196845     96 | 16.747 % |
c |    295371 |  180209   709674  1780907 |  1315242   295371    105 | 16.747 % |
c |    443160 |  180209   709674  1780907 |  1446767   443160    114 | 16.747 % |
c |    664843 |  180209   709674  1780907 |  1591443   664843    143 | 16.747 % |
c |    997368 |  180209   709674  1780907 |  1750588   997368    152 | 16.747 % |
c |   1496156 |  180209   709674  1780907 |  1925647  1496156    165 | 16.747 % |
c ===============================================================================
c restarts              : 3547
c conflicts             : 1815460        (1014 /sec)
c decisions             : 8639912        (0.00 % random) (4825 /sec)
c propagations          : 5077740552     (2835954 /sec)
c conflict literals     : 301376684      (26.79 % deleted)
d RESTARTS             3547
d FAILURES             1815460      
d NODES                8639912      
d BACKTRACKS           8639912      
d PROPAGATIONS         5077740552   
d NOGOODSIZE           166.01 
d MEMORY               1610.00 
d TIME                 1790.49 

s UNKNOWN
